1128
0	54	168	258	318	357	392	464	607	673
0	20	66	100	169	291	310	412	433	470
0	66	90	141	169	252	330	398	425	433
0	90	130	187	258	291	330	460	542	629
20	103	152	175	252	328	376	559	581	621
0	105	266	328	412	425	496	542	601	620
127	318	513	554	607	696	753	844	858	927
0	103	187	233	376	470	496	524	673	781
200	554	629	696	781	791	881	919	1014	1111
45	118	152	423	516	581	753	796	881	927
